NAME: ipa-building-navigation
TYPE: TSP
COMMENT: This is the TSPlib file for using concorde. See http://comopt.ifi.uni-heidelberg.de/software/TSPLIB95/ for documentation.
DIMENSION: 11
EDGE_WEIGHT_TYPE: EXPLICIT
EDGE_WEIGHT_FORMAT: FULL_MATRIX
EDGE_WEIGHT_SECTION
 0 207 315 480 258 110 422 250 511 171 354
 207 0 221 385 164 106 328 177 416 242 266
 315 221 0 290 78 214 233 264 342 350 192
 480 385 290 0 231 379 76 411 195 515 281
 258 164 78 231 0 148 164 191 264 283 113
 110 106 214 379 148 0 312 140 400 135 244
 422 328 233 76 164 312 0 339 118 447 204
 250 177 264 411 191 140 339 0 337 265 135
 511 416 342 195 264 400 118 337 0 526 202
 171 242 350 515 283 135 447 265 526 0 369
 354 266 192 281 113 244 204 135 202 369 0
EOF